40
    43    79    34    85    17    73    61    53    96    87    10     8    83    82    84    27     8    76    66    92    30    37    17    85    37    88    76    92    44     4    59     4    94    14    62    13    60   100    57    14
    10     8     5     9     6     2     1     7     2     8     5     6     2     8     6     1     4     5     4     6     9     2     2     6    10     6     8     8     7     9     3     9     8     2    10     8     1     9     8     5
  1109   506  2070   665  2085  1505   533  1899  1501   724  1976  1522   581   557  2018   690  1868  1554   844  1590   467  1940  1763  1369  1936  1425  2013   679  1495   724  1630  1037  1915  1932  1138  1338  1323  1165  1816  2105
